NAME : XML100_3363_02
DIMENSION : 101
NB_CLUSTERS : 3
CLUSTERING_ALG : KMedoids
CLUSTERING_PARAMS : k(2)
CLUSTERS
1 0
2 2 3 5 6 7 8 9 10 12 13 15 17 19 20 21 23 24 25 27 28 30 31 32 33 34 35 36 37 38 40 44 45 46 48 49 50 51 52 54 55 57 59 66 67 70 71 72 73 74 75 76 80 81 82 83 86 87 89 90 91 92 93 96 97 98 99 100
3 1 4 11 14 16 18 22 26 29 39 41 42 43 47 53 56 58 60 61 62 63 64 65 68 69 77 78 79 84 85 88 94 95
EOF